p cnf 989
-15 -309
-16 -312
-17 -315
-18 -318
-19 -321
-20 -324
-21 -327
-22 -330
-23 -333
-24 -336
-25 -339
-26 -342
-27 -345
-28 -348
-29 349
-30 350
-31 351
-32 352
-33 353
-34 354
-35 355
-36 356
-37 -16
-37 -17
16 17 37
-38 -18
-38 -19
18 19 38
-39 -20
-39 -21
20 21 39
-40 -22
-40 -23
22 23 40
-41 -24
-41 -25
24 25 41
-42 -26
-42 -27
26 27 42
-43 -28
-43 -29
28 29 43
-44 -30
-44 -31
30 31 44
-45 -32
-45 -33
32 33 45
-46 -34
-46 -35
34 35 46
-47 37
-47 38
-37 -38 47
-48 39
-48 40
-39 -40 48
-49 41
-49 42
-41 -42 49
-50 43
-50 44
-43 -44 50
-51 45
-51 46
-45 -46 51
-52 47
-52 48
-47 -48 52
-53 49
-53 50
-49 -50 53
-54 -36
-54 51
36 -51 54
-55 52
-55 53
-52 -53 55
-56 54
-56 55
-54 -55 56
-57 -15
-57 16
15 -16 57
-58 15
-58 -16
-15 16 58
-59 -57
-59 -58
57 58 59
-60 15
-60 16
-15 -16 60
-61 -15
-61 -59
15 59 61
-62 15
-62 59
-15 -59 62
-63 -61
-63 -62
61 62 63
-64 15
-64 -59
-15 59 64
-65 -60
-65 -64
60 64 65
-66 -16
-66 17
16 -17 66
-67 16
-67 -17
-16 17 67
-68 -66
-68 -67
66 67 68
-69 16
-69 17
-16 -17 69
-70 65
-70 -68
-65 68 70
-71 -65
-71 68
65 -68 71
-72 -70
-72 -71
70 71 72
-73 -65
-73 -68
65 68 73
-74 -69
-74 -73
69 73 74
-75 -17
-75 18
17 -18 75
-76 17
-76 -18
-17 18 76
-77 -75
-77 -76
75 76 77
-78 17
-78 18
-17 -18 78
-79 74
-79 -77
-74 77 79
-80 -74
-80 77
74 -77 80
-81 -79
-81 -80
79 80 81
-82 -74
-82 -77
74 77 82
-83 -78
-83 -82
78 82 83
-84 -18
-84 19
18 -19 84
-85 18
-85 -19
-18 19 85
-86 -84
-86 -85
84 85 86
-87 18
-87 19
-18 -19 87
-88 83
-88 -86
-83 86 88
-89 -83
-89 86
83 -86 89
-90 -88
-90 -89
88 89 90
-91 -83
-91 -86
83 86 91
-92 -87
-92 -91
87 91 92
-93 -19
-93 20
19 -20 93
-94 19
-94 -20
-19 20 94
-95 -93
-95 -94
93 94 95
-96 19
-96 20
-19 -20 96
-97 92
-97 -95
-92 95 97
-98 -92
-98 95
92 -95 98
-99 -97
-99 -98
97 98 99
-100 -92
-100 -95
92 95 100
-101 -96
-101 -100
96 100 101
-102 -20
-102 21
20 -21 102
-103 20
-103 -21
-20 21 103
-104 -102
-104 -103
102 103 104
-105 20
-105 21
-20 -21 105
-106 101
-106 -104
-101 104 106
-107 -101
-107 104
101 -104 107
-108 -106
-108 -107
106 107 108
-109 -101
-109 -104
101 104 109
-110 -105
-110 -109
105 109 110
-111 -21
-111 22
21 -22 111
-112 21
-112 -22
-21 22 112
-113 -111
-113 -112
111 112 113
-114 21
-114 22
-21 -22 114
-115 110
-115 -113
-110 113 115
-116 -110
-116 113
110 -113 116
-117 -115
-117 -116
115 116 117
-118 -110
-118 -113
110 113 118
-119 -114
-119 -118
114 118 119
-120 -22
-120 23
22 -23 120
-121 22
-121 -23
-22 23 121
-122 -120
-122 -121
120 121 122
-123 22
-123 23
-22 -23 123
-124 119
-124 -122
-119 122 124
-125 -119
-125 122
119 -122 125
-126 -124
-126 -125
124 125 126
-127 -119
-127 -122
119 122 127
-128 -123
-128 -127
123 127 128
-129 -23
-129 24
23 -24 129
-130 23
-130 -24
-23 24 130
-131 -129
-131 -130
129 130 131
-132 23
-132 24
-23 -24 132
-133 128
-133 -131
-128 131 133
-134 -128
-134 131
128 -131 134
-135 -133
-135 -134
133 134 135
-136 -128
-136 -131
128 131 136
-137 -132
-137 -136
132 136 137
-138 -24
-138 25
24 -25 138
-139 24
-139 -25
-24 25 139
-140 -138
-140 -139
138 139 140
-141 24
-141 25
-24 -25 141
-142 137
-142 -140
-137 140 142
-143 -137
-143 140
137 -140 143
-144 -142
-144 -143
142 143 144
-145 -137
-145 -140
137 140 145
-146 -141
-146 -145
141 145 146
-147 -25
-147 26
25 -26 147
-148 25
-148 -26
-25 26 148
-149 -147
-149 -148
147 148 149
-150 25
-150 26
-25 -26 150
-151 146
-151 -149
-146 149 151
-152 -146
-152 149
146 -149 152
-153 -151
-153 -152
151 152 153
-154 -146
-154 -149
146 149 154
-155 -150
-155 -154
150 154 155
-156 -26
-156 27
26 -27 156
-157 26
-157 -27
-26 27 157
-158 -156
-158 -157
156 157 158
-159 26
-159 27
-26 -27 159
-160 155
-160 -158
-155 158 160
-161 -155
-161 158
155 -158 161
-162 -160
-162 -161
160 161 162
-163 -155
-163 -158
155 158 163
-164 -159
-164 -163
159 163 164
-165 -27
-165 28
27 -28 165
-166 27
-166 -28
-27 28 166
-167 -165
-167 -166
165 166 167
-168 27
-168 28
-27 -28 168
-169 164
-169 -167
-164 167 169
-170 -164
-170 167
164 -167 170
-171 -169
-171 -170
169 170 171
-172 -164
-172 -167
164 167 172
-173 -168
-173 -172
168 172 173
-174 -28
-174 29
28 -29 174
-175 28
-175 -29
-28 29 175
-176 -174
-176 -175
174 175 176
-177 28
-177 29
-28 -29 177
-178 173
-178 -176
-173 176 178
-179 -173
-179 176
173 -176 179
-180 -178
-180 -179
178 179 180
-181 -173
-181 -176
173 176 181
-182 -177
-182 -181
177 181 182
-183 -29
-183 30
29 -30 183
-184 29
-184 -30
-29 30 184
-185 -183
-185 -184
183 184 185
-186 29
-186 30
-29 -30 186
-187 182
-187 -185
-182 185 187
-188 -182
-188 185
182 -185 188
-189 -187
-189 -188
187 188 189
-190 -182
-190 -185
182 185 190
-191 -186
-191 -190
186 190 191
-192 -30
-192 31
30 -31 192
-193 30
-193 -31
-30 31 193
-194 -192
-194 -193
192 193 194
-195 30
-195 31
-30 -31 195
-196 191
-196 -194
-191 194 196
-197 -191
-197 194
191 -194 197
-198 -196
-198 -197
196 197 198
-199 -191
-199 -194
191 194 199
-200 -195
-200 -199
195 199 200
-201 -31
-201 32
31 -32 201
-202 31
-202 -32
-31 32 202
-203 -201
-203 -202
201 202 203
-204 31
-204 32
-31 -32 204
-205 200
-205 -203
-200 203 205
-206 -200
-206 203
200 -203 206
-207 -205
-207 -206
205 206 207
-208 -200
-208 -203
200 203 208
-209 -204
-209 -208
204 208 209
-210 -32
-210 33
32 -33 210
-211 32
-211 -33
-32 33 211
-212 -210
-212 -211
210 211 212
-213 32
-213 33
-32 -33 213
-214 209
-214 -212
-209 212 214
-215 -209
-215 212
209 -212 215
-216 -214
-216 -215
214 215 216
-217 -209
-217 -212
209 212 217
-218 -213
-218 -217
213 217 218
-219 -33
-219 34
33 -34 219
-220 33
-220 -34
-33 34 220
-221 -219
-221 -220
219 220 221
-222 33
-222 34
-33 -34 222
-223 218
-223 -221
-218 221 223
-224 -218
-224 221
218 -221 224
-225 -223
-225 -224
223 224 225
-226 -218
-226 -221
218 221 226
-227 -222
-227 -226
222 226 227
-228 -34
-228 35
34 -35 228
-229 34
-229 -35
-34 35 229
-230 -228
-230 -229
228 229 230
-231 34
-231 35
-34 -35 231
-232 227
-232 -230
-227 230 232
-233 -227
-233 230
227 -230 233
-234 -232
-234 -233
232 233 234
-235 -227
-235 -230
227 230 235
-236 -231
-236 -235
231 235 236
-237 -35
-237 36
35 -36 237
-238 35
-238 -36
-35 36 238
-239 -237
-239 -238
237 238 239
-240 35
-240 36
-35 -36 240
-241 236
-241 -239
-236 239 241
-242 -236
-242 239
236 -239 242
-243 -241
-243 -242
241 242 243
-244 -236
-244 -239
236 239 244
-245 -240
-245 -244
240 244 245
-246 15
-246 -63
-15 63 246
-247 -15
-247 17
15 -17 247
-248 -246
-248 -247
246 247 248
-249 15
-249 -72
-15 72 249
-250 -15
-250 18
15 -18 250
-251 -249
-251 -250
249 250 251
-252 15
-252 -81
-15 81 252
-253 -15
-253 19
15 -19 253
-254 -252
-254 -253
252 253 254
-255 15
-255 -90
-15 90 255
-256 -15
-256 20
15 -20 256
-257 -255
-257 -256
255 256 257
-258 15
-258 -99
-15 99 258
-259 -15
-259 21
15 -21 259
-260 -258
-260 -259
258 259 260
-261 15
-261 -108
-15 108 261
-262 -15
-262 22
15 -22 262
-263 -261
-263 -262
261 262 263
-264 15
-264 -117
-15 117 264
-265 -15
-265 23
15 -23 265
-266 -264
-266 -265
264 265 266
-267 15
-267 -126
-15 126 267
-268 -15
-268 24
15 -24 268
-269 -267
-269 -268
267 268 269
-270 15
-270 -135
-15 135 270
-271 -15
-271 25
15 -25 271
-272 -270
-272 -271
270 271 272
-273 15
-273 -144
-15 144 273
-274 -15
-274 26
15 -26 274
-275 -273
-275 -274
273 274 275
-276 15
-276 -153
-15 153 276
-277 -15
-277 27
15 -27 277
-278 -276
-278 -277
276 277 278
-279 15
-279 -162
-15 162 279
-280 -15
-280 28
15 -28 280
-281 -279
-281 -280
279 280 281
-282 15
-282 -171
-15 171 282
-283 -15
-283 29
15 -29 283
-284 -282
-284 -283
282 283 284
-285 15
-285 -180
-15 180 285
-286 -15
-286 30
15 -30 286
-287 -285
-287 -286
285 286 287
-288 15
-288 -189
-15 189 288
-289 -15
-289 31
15 -31 289
-290 -288
-290 -289
288 289 290
-291 15
-291 -198
-15 198 291
-292 -15
-292 32
15 -32 292
-293 -291
-293 -292
291 292 293
-294 15
-294 -207
-15 207 294
-295 -15
-295 33
15 -33 295
-296 -294
-296 -295
294 295 296
-297 15
-297 -216
-15 216 297
-298 -15
-298 34
15 -34 298
-299 -297
-299 -298
297 298 299
-300 15
-300 -225
-15 225 300
-301 -15
-301 35
15 -35 301
-302 -300
-302 -301
300 301 302
-303 15
-303 -234
-15 234 303
-304 -15
-304 36
15 -36 304
-305 -303
-305 -304
303 304 305
-306 15
-306 -243
-15 243 306
-307 1
-307 56
-1 -56 307
-308 -56
-308 57
56 -57 308
-309 -307
-309 -308
307 308 309
-310 2
-310 56
-2 -56 310
-311 -56
-311 -248
56 248 311
-312 -310
-312 -311
310 311 312
-313 3
-313 56
-3 -56 313
-314 -56
-314 -251
56 251 314
-315 -313
-315 -314
313 314 315
-316 4
-316 56
-4 -56 316
-317 -56
-317 -254
56 254 317
-318 -316
-318 -317
316 317 318
-319 5
-319 56
-5 -56 319
-320 -56
-320 -257
56 257 320
-321 -319
-321 -320
319 320 321
-322 6
-322 56
-6 -56 322
-323 -56
-323 -260
56 260 323
-324 -322
-324 -323
322 323 324
-325 7
-325 56
-7 -56 325
-326 -56
-326 -263
56 263 326
-327 -325
-327 -326
325 326 327
-328 8
-328 56
-8 -56 328
-329 -56
-329 -266
56 266 329
-330 -328
-330 -329
328 329 330
-331 9
-331 56
-9 -56 331
-332 -56
-332 -269
56 269 332
-333 -331
-333 -332
331 332 333
-334 10
-334 56
-10 -56 334
-335 -56
-335 -272
56 272 335
-336 -334
-336 -335
334 335 336
-337 11
-337 56
-11 -56 337
-338 -56
-338 -275
56 275 338
-339 -337
-339 -338
337 338 339
-340 12
-340 56
-12 -56 340
-341 -56
-341 -278
56 278 341
-342 -340
-342 -341
340 341 342
-343 13
-343 56
-13 -56 343
-344 -56
-344 -281
56 281 344
-345 -343
-345 -344
343 344 345
-346 14
-346 56
-14 -56 346
-347 -56
-347 -284
56 284 347
-348 -346
-348 -347
346 347 348
-349 -56
-349 -287
56 287 349
-350 -56
-350 -290
56 290 350
-351 -56
-351 -293
56 293 351
-352 -56
-352 -296
56 296 352
-353 -56
-353 -299
56 299 353
-354 -56
-354 -302
56 302 354
-355 -56
-355 -305
56 305 355
-356 -56
-356 306
56 -306 356
-357 -36
-357 245
36 -245 357
-358 15
-358 -357
-15 357 358
358
